1376
500000
332873
332873
332873
332873
332873
332873
332873
332873
332873
332873
332873
332873
332873
332873
332873
332873
332873
332873
332873
332766
332766
332766
331820
331820
331820
331820
330048
330048
330048
330048
330048
330048
330048
330048
329286
329286
329286
329286
329286
329286
329286
329286
329286
329286
328318
328318
328318
328318
328318
328318
327855
327855
327855
327855
327855
327855
327855
327855
327855
327855
327855
327855
327855
327855
327855
327855
327855
327855
327855
325885
325885
325885
325885
325885
325885
325885
325885
325885
325885
325885
325885
325885
325885
325885
325885
325099
325099
325099
325099
325099
325099
325099
325099
325099
325099
325099
325099
325099
325099
325099
325099
325099
325099
325099
325099
323979
323979
323979
323979
323979
323979
323979
323979
323979
323979
321408
321408
321408
321408
321408
321408
321408
315670
315670
315670
315670
315670
315670
315670
315670
315670
315670
315670
315670
315670
315670
315670
315670
315670
315670
313116
313116
313116
313116
313116
313116
313116
313116
313116
313116
313116
313116
313116
313116
313116
313116
313116
312975
312975
312975
312975
312975
312975
312975
312975
312975
312975
312975
312975
312975
312975
312975
312975
312975
310604
308383
308383
308383
308383
308383
308383
308383
308383
308383
308383
308383
308383
308383
306888
306888
306888
306888
306888
306888
306888
306888
306888
306888
306888
306888
306888
306888
306888
306888
306888
306888
306888
306750
306750
306750
306750
306750
306750
306750
299762
297946
297946
297946
297946
297946
297946
297946
297946
297946
297946
297946
297946
297946
297946
297946
297946
296467
296467
296467
296467
296467
296467
296467
296467
296467
296467
296467
296467
296467
296467
296467
296467
296467
296467
296467
296467
292667
292667
292667
292667
292667
292667
292667
292667
292667
292667
292667
292667
292667
292667
292667
287631
287631
287631
287631
287631
287631
287631
287631
287631
287631
287631
287631
287631
287631
287631
287631
284125
284125
284125
284125
284125
284125
284125
284125
284125
280798
280798
280798
280798
280798
280798
280798
280798
280798
280798
280798
280798
278750
278750
278750
278750
278750
278750
278750
278750
278750
278732
278732
278732
278732
278732
278732
278732
278732
278732
278732
278732
278732
278732
278732
278732
278732
274858
274858
274858
274858
274858
274858
274858
274858
274858
274858
274858
274858
274858
274858
274858
274858
274858
272628
272628
272628
272628
265377
265377
265377
265377
265377
265377
265377
265377
265377
265377
265377
265377
260914
260914
260914
260914
260914
260914
260914
260914
260914
260914
260914
260914
260914
260914
260914
260914
260914
260914
259419
259419
259419
259419
259419
259419
259419
259419
259419
259419
259419
259419
259419
259419
259419
259419
259419
258231
258231
258231
258231
258231
258231
258231
258231
258231
255290
255290
255290
255290
255290
255290
251021
251021
251021
251021
251021
251021
250138
250138
250138
250138
250138
250138
250138
250138
250138
249469
249469
249469
249469
249469
249469
249469
249469
249469
249469
249469
249469
249469
249469
249469
249469
247715
247715
247715
247715
245788
245788
245788
245788
245788
245788
245788
245788
245788
245788
244053
244053
244053
244053
244053
244053
244053
244053
244053
244053
244053
244053
244053
244053
244053
244053
244053
244053
243700
243700
243700
243700
243700
243700
243700
243700
243700
243700
243700
241597
241597
241597
241597
241597
241597
241597
241597
241597
241597
241597
241223
241223
241223
241223
241223
241223
241223
241223
240947
240947
240947
240947
240947
240947
240947
240947
240947
240947
240947
240947
240947
240947
240947
236968
236968
236968
236968
236968
236968
236968
236968
236968
236968
236968
236777
236777
236777
236777
236777
236777
236777
236777
236777
236777
235543
235543
235180
235180
235180
235180
235180
235180
235180
235180
235180
235180
235180
235180
235180
235180
235180
235180
235180
235180
228478
228478
228478
228478
228478
228478
228478
228478
228478
228478
228478
228478
228478
228478
228478
228478
228478
228478
228212
228212
228212
228212
228212
228212
228212
228212
228212
228212
228212
228212
228212
228212
228212
228212
228212
228212
228212
228212
225321
225321
225321
225321
225321
225321
225321
225321
225321
225321
225321
225321
223867
223867
223867
223867
223867
223867
223867
223867
223867
223867
223867
223867
223867
223867
222755
222755
222755
222755
222755
222755
222755
222755
222755
222680
222680
222680
222680
222680
216442
216442
216442
216442
216442
216442
216442
216442
216442
216442
216442
216442
216442
216442
216442
216442
216442
216442
215298
215298
215298
215298
215298
215298
215298
215298
212108
212108
212108
212108
212108
212108
212108
212108
212108
212108
209147
209147
209147
209147
209147
209147
209147
209147
209147
209147
209147
209147
209147
209147
206553
206553
206553
206553
206553
206553
206553
206553
206553
206553
206553
206553
206553
206553
206553
206553
206553
205422
205422
203226
203226
203226
203226
200238
200238
200238
200238
200238
200238
200238
200238
200238
200238
200238
199970
199970
199970
199970
199970
199970
199970
199970
199970
199970
195783
195783
195783
195783
195783
195783
195783
195783
195783
188911
188911
188911
188911
188911
188911
188911
188911
188911
188911
188911
188911
188911
188911
188911
188911
188911
185974
185472
185472
185472
185472
185472
185472
185472
183687
183687
183687
183687
183687
183687
183687
183687
183687
183687
183687
183687
183687
183687
183687
183687
182195
182195
182195
182195
182195
182195
182195
182195
182195
182195
182195
182195
182195
182195
182195
180824
180824
180824
180824
180824
180824
180824
180824
180824
180824
180824
180824
180824
180824
180824
180824
173731
173731
173731
173731
173731
173731
173731
173731
173731
173731
173731
173731
173731
173096
173096
173096
173096
173096
173096
173096
173096
173096
173096
173096
172726
172726
172726
172726
172726
170518
169475
169475
169475
169475
169475
169475
169475
169475
169475
169475
169475
167963
167963
167963
167963
167963
167963
167963
167030
167030
167030
167030
167030
167030
167030
167030
167030
167030
167030
167030
167030
167030
167030
167030
167030
167030
167030
167030
163335
163335
163335
163335
163335
163335
163335
163335
163335
163335
163335
163335
163335
163335
163335
163335
163335
163335
163335
163164
163164
163164
163164
163164
163164
163164
163164
163164
163164
163164
162088
162088
162088
162088
162088
159620
159620
159620
159620
159620
159620
159620
159620
159620
159620
159620
159620
159620
159620
159620
159620
159620
159620
159620
159620
156581
156581
156581
156581
156581
156581
156581
156581
156581
156581
156490
156490
156490
156490
156490
156490
156490
156490
152754
152754
152754
152754
152754
152754
152754
152137
152137
152137
152137
152137
152137
152137
152137
152137
152137
152137
152137
151423
151423
151423
151423
151423
151423
151423
151423
151034
151034
151034
151034
151034
151034
151034
151034
151034
151034
151034
151034
151034
151034
151034
151034
151034
151034
149718
149718
149718
149718
149718
149718
149718
149718
149718
149718
149718
149718
149718
149718
149718
149718
149718
149718
146824
146824
146824
146824
146824
146824
146824
145420
145420
138583
138583
138583
138583
138583
138583
138583
138583
138583
138583
138583
138583
138583
138583
138583
137567
137567
137567
137567
137567
137567
137567
137567
137567
137567
134291
134291
134291
134291
134291
134291
134291
133501
133501
133501
133501
133501
133501
133501
133501
133501
133501
133501
133501
133501
133501
133501
132736
132736
132736
132736
132736
132736
132736
132736
132736
132736
132736
131088
131088
131088
131088
131088
131088
131088
131088
131088
131088
131088
131088
131088
131088
131088
131088
130856
130856
130856
130856
130856
130856
130856
130856
130856
130856
130856
130856
130856
130856
130856
129318
129318
129318
129318
128328
125990
125990
125990
125990
125990
125990
125990
125990
125990
125990
125990
125990
125990
125990
125990
125990
125990
125803
125803
125803
125803
125803
125338
125338
125338
125338
125338
125338
125141
125141
125141
125141
125141
124195
124195
124195
124195
124195
124195
124195
124195
124195
124195
124195
124195
124195
124195
124195
123998
123998
123998
123998
123998
122133
122133
122133
122133
122133
122133
122133
122133
122133
122133
119235
119235
119235
119235
119235
119235
119235
119235
119235
119235
119235
119235
119235
119235
116306
116306
116306
116306
116306
116306
116306
116306
116306
116306
116306
116306
116306
116306
116306
116306
116306
116306
116306
116219
116219
116219
116219
116219
116219
116219
116219
116219
116219
116219
116219
116219
116219
116219
116219
116219
111386
111386
111386
111386
104523
104523
104523
104523
104523
104523
104523
104523
104523
104523
104523
104523
104523
104523
104523
104523
104523
104523
104523
103084
103084
103084
103084
103084
103084
103084
103084
102514
102514
102514
102514
102514
102514
102514
102514
102514
102514
102514
102514
102514
95840
95840
95840
95840
95840
95840
95840
95840
95840
95840
95840
95840
95840
95840
95840
95840
94620
94620
90755
90755
90755
90755
90755
90755
90755
90755
90755
90755
90755
90755
90755
90755
90755
90755
90755
90755
90755
89017
89017
89017
85414
85414
85414
85414
85414
85414
85281
85281
85281
85281
82750
82750
82750
82750
82750
82750
82750
81962
81962
81962
81962
81962
80013
80013
80013
80013
80013
80013
80013
76591
76591
76591
76591
76591
76591
76591
76591
76591
76591
76591
76591
76591
76591
76591
76591
76591
76591
75414
75414
75414
75414
75414
75414
75414
75414
75414
69156
69156
69156
